13656 22473
40721 40483
22279 64711
25727 21065
39414 23924
8132 34031
9372 21277
49805 62841
35089 25935
38009 29229
30765 24231
63641 22678
58744 54815
37619 18793
36359 63369
39110 51157
3419 54674
46882 40732
56997 43875
11051 55148
20496 9313
15976 25576
47084 35334
9488 45371
99 65419
20146 28471
24287 56168
2512 43971
53830 64717
38104 17831
3298 3674
1249 65163
49934 34119
30625 10746
55266 1538
58794 3888
3187 34744
47658 51517
39032 55322
38218 3422
47701 13975
23733 9387
18379 7387
52406 39073
24639 63324
27085 46467
25342 9631
17231 42183
21841 50151
12723 2409
47549 62877
39237 45364
56357 24914
18222 3855
